(set-info :smt-lib-version 2.6)
(set-logic QF_NIA)
(set-info :source |
Generated by: Cristina Borralleras, Daniel Larraz, Albert Oliveras, Enric Rodriguez-Carbonell, Albert Rubio
Generated on: 2017-04-27
Generator: VeryMax
Application: Termination proving
Target solver: barcelogic
|)
(set-info :license "https://creativecommons.org/licenses/by/4.0/")
(set-info :category "industrial")
(set-info :status sat)
(declare-fun Nl2main_x1 () Int)
(declare-fun Nl2main_y1 () Int)
(declare-fun lam0n0 () Int)
(declare-fun lam0n1 () Int)
(declare-fun lam0n2 () Int)
(declare-fun lam0n3 () Int)
(declare-fun lam0n4 () Int)
(declare-fun lam0n5 () Int)
(declare-fun lam0n6 () Int)
(declare-fun lam0n7 () Int)
(declare-fun lam0n8 () Int)
(declare-fun lam0n9 () Int)
(declare-fun lam0n10 () Int)
(declare-fun lam0n11 () Int)
(declare-fun Nl2CT1 () Int)
(declare-fun lam1n0 () Int)
(declare-fun lam1n1 () Int)
(declare-fun lam1n2 () Int)
(declare-fun lam1n3 () Int)
(declare-fun lam1n4 () Int)
(declare-fun lam1n5 () Int)
(declare-fun lam1n6 () Int)
(declare-fun lam1n7 () Int)
(declare-fun lam1n8 () Int)
(declare-fun lam1n9 () Int)
(declare-fun lam1n10 () Int)
(declare-fun lam1n11 () Int)
(declare-fun lam2n0 () Int)
(declare-fun lam2n1 () Int)
(declare-fun main_x () Int)
(declare-fun undef3 () Int)
(declare-fun main_y () Int)
(declare-fun undef4 () Int)
(declare-fun FV_main_x_1 () Int)
(declare-fun FV_main_y_1 () Int)
(declare-fun lam3n0 () Int)
(declare-fun lam3n1 () Int)
(declare-fun lam3n2 () Int)
(declare-fun lam3n3 () Int)
(declare-fun lam3n4 () Int)
(declare-fun lam3n5 () Int)
(declare-fun lam3n6 () Int)
(declare-fun lam3n7 () Int)
(declare-fun lam3n8 () Int)
(declare-fun lam3n9 () Int)
(declare-fun lam3n10 () Int)
(declare-fun lam4n0 () Int)
(declare-fun lam4n1 () Int)
(declare-fun lam4n2 () Int)
(declare-fun lam4n3 () Int)
(declare-fun lam4n4 () Int)
(declare-fun lam4n5 () Int)
(declare-fun lam4n6 () Int)
(declare-fun lam4n7 () Int)
(declare-fun lam4n8 () Int)
(declare-fun lam4n9 () Int)
(declare-fun lam4n10 () Int)
(declare-fun lam4n11 () Int)
(declare-fun lam5n0 () Int)
(declare-fun lam5n1 () Int)
(declare-fun lam5n2 () Int)
(declare-fun lam5n3 () Int)
(declare-fun lam5n4 () Int)
(declare-fun lam5n5 () Int)
(declare-fun lam5n6 () Int)
(declare-fun lam5n7 () Int)
(declare-fun lam5n8 () Int)
(declare-fun lam5n9 () Int)
(declare-fun lam5n10 () Int)
(declare-fun lam5n11 () Int)
(declare-fun lam6n0 () Int)
(declare-fun lam6n1 () Int)
(declare-fun lam6n2 () Int)
(declare-fun lam6n3 () Int)
(declare-fun lam6n4 () Int)
(declare-fun lam6n5 () Int)
(declare-fun lam6n6 () Int)
(declare-fun lam6n7 () Int)
(declare-fun lam6n8 () Int)
(declare-fun lam6n9 () Int)
(declare-fun lam6n10 () Int)
(declare-fun lam7n0 () Int)
(declare-fun lam7n1 () Int)
(declare-fun lam7n2 () Int)
(declare-fun lam7n3 () Int)
(declare-fun lam7n4 () Int)
(declare-fun lam7n5 () Int)
(declare-fun lam7n6 () Int)
(declare-fun lam7n7 () Int)
(declare-fun lam7n8 () Int)
(declare-fun lam7n9 () Int)
(declare-fun lam7n10 () Int)
(declare-fun lam7n11 () Int)
(declare-fun lam8n0 () Int)
(declare-fun lam8n1 () Int)
(declare-fun lam8n2 () Int)
(declare-fun lam8n3 () Int)
(declare-fun lam8n4 () Int)
(declare-fun lam8n5 () Int)
(declare-fun lam8n6 () Int)
(declare-fun lam8n7 () Int)
(declare-fun lam8n8 () Int)
(declare-fun lam8n9 () Int)
(declare-fun lam8n10 () Int)
(declare-fun lam9n0 () Int)
(declare-fun lam9n1 () Int)
(declare-fun lam9n2 () Int)
(declare-fun lam9n3 () Int)
(declare-fun lam9n4 () Int)
(declare-fun lam9n5 () Int)
(declare-fun lam9n6 () Int)
(declare-fun lam9n7 () Int)
(declare-fun lam9n8 () Int)
(declare-fun lam9n9 () Int)
(declare-fun lam9n10 () Int)
(declare-fun lam9n11 () Int)
(declare-fun lam10n0 () Int)
(declare-fun lam10n1 () Int)
(declare-fun lam10n2 () Int)
(declare-fun lam10n3 () Int)
(declare-fun lam10n4 () Int)
(declare-fun lam10n5 () Int)
(declare-fun lam10n6 () Int)
(declare-fun lam10n7 () Int)
(declare-fun lam10n8 () Int)
(declare-fun lam10n9 () Int)
(declare-fun lam10n10 () Int)
(declare-fun lam11n0 () Int)
(declare-fun lam11n1 () Int)
(declare-fun lam11n2 () Int)
(declare-fun lam11n3 () Int)
(declare-fun lam11n4 () Int)
(declare-fun lam11n5 () Int)
(declare-fun lam11n6 () Int)
(declare-fun lam11n7 () Int)
(declare-fun lam11n8 () Int)
(declare-fun lam11n9 () Int)
(declare-fun lam11n10 () Int)
(declare-fun lam11n11 () Int)
(declare-fun lam12n0 () Int)
(declare-fun lam12n1 () Int)
(declare-fun lam12n2 () Int)
(declare-fun lam12n3 () Int)
(declare-fun lam12n4 () Int)
(declare-fun lam12n5 () Int)
(declare-fun lam12n6 () Int)
(declare-fun lam12n7 () Int)
(declare-fun lam12n8 () Int)
(declare-fun lam12n9 () Int)
(declare-fun lam13n0 () Int)
(declare-fun lam13n1 () Int)
(declare-fun lam13n2 () Int)
(declare-fun lam13n3 () Int)
(declare-fun lam13n4 () Int)
(declare-fun lam13n5 () Int)
(declare-fun lam13n6 () Int)
(declare-fun lam13n7 () Int)
(declare-fun lam13n8 () Int)
(declare-fun lam13n9 () Int)
(declare-fun lam13n10 () Int)
(declare-fun lam13n11 () Int)
(declare-fun lam14n0 () Int)
(declare-fun lam14n1 () Int)
(declare-fun lam14n2 () Int)
(declare-fun lam14n3 () Int)
(declare-fun lam14n4 () Int)
(declare-fun lam14n5 () Int)
(declare-fun lam14n6 () Int)
(declare-fun lam14n7 () Int)
(declare-fun lam14n8 () Int)
(declare-fun lam14n9 () Int)
(declare-fun lam14n10 () Int)
(declare-fun lam15n0 () Int)
(declare-fun lam15n1 () Int)
(declare-fun lam15n2 () Int)
(declare-fun lam15n3 () Int)
(declare-fun lam15n4 () Int)
(declare-fun lam15n5 () Int)
(declare-fun lam15n6 () Int)
(declare-fun lam15n7 () Int)
(declare-fun lam15n8 () Int)
(declare-fun lam15n9 () Int)
(declare-fun lam15n10 () Int)
(declare-fun lam15n11 () Int)
(declare-fun lam16n0 () Int)
(declare-fun lam16n1 () Int)
(declare-fun lam16n2 () Int)
(declare-fun lam16n3 () Int)
(declare-fun lam16n4 () Int)
(declare-fun lam16n5 () Int)
(declare-fun lam16n6 () Int)
(declare-fun lam16n7 () Int)
(declare-fun lam16n8 () Int)
(declare-fun lam16n9 () Int)
(declare-fun lam16n10 () Int)
(declare-fun lam17n0 () Int)
(declare-fun lam17n1 () Int)
(declare-fun lam17n2 () Int)
(declare-fun lam17n3 () Int)
(declare-fun lam17n4 () Int)
(declare-fun lam17n5 () Int)
(declare-fun lam17n6 () Int)
(declare-fun lam17n7 () Int)
(declare-fun lam17n8 () Int)
(declare-fun lam17n9 () Int)
(declare-fun lam17n10 () Int)
(declare-fun lam18n0 () Int)
(declare-fun lam18n1 () Int)
(declare-fun lam18n2 () Int)
(declare-fun lam18n3 () Int)
(declare-fun lam18n4 () Int)
(declare-fun lam18n5 () Int)
(declare-fun lam18n6 () Int)
(declare-fun lam18n7 () Int)
(declare-fun lam18n8 () Int)
(declare-fun lam18n9 () Int)
(declare-fun lam19n0 () Int)
(declare-fun lam19n1 () Int)
(declare-fun lam19n2 () Int)
(declare-fun lam19n3 () Int)
(declare-fun lam19n4 () Int)
(declare-fun lam19n5 () Int)
(declare-fun lam19n6 () Int)
(declare-fun lam19n7 () Int)
(declare-fun lam19n8 () Int)
(declare-fun lam19n9 () Int)
(declare-fun lam19n10 () Int)
(declare-fun lam20n0 () Int)
(declare-fun lam20n1 () Int)
(declare-fun lam20n2 () Int)
(declare-fun lam20n3 () Int)
(declare-fun lam20n4 () Int)
(declare-fun lam20n5 () Int)
(declare-fun lam20n6 () Int)
(declare-fun lam20n7 () Int)
(declare-fun lam20n8 () Int)
(declare-fun lam20n9 () Int)
(declare-fun lam20n10 () Int)
(declare-fun lam21n0 () Int)
(declare-fun lam21n1 () Int)
(declare-fun lam21n2 () Int)
(declare-fun lam21n3 () Int)
(declare-fun lam21n4 () Int)
(declare-fun lam21n5 () Int)
(declare-fun lam21n6 () Int)
(declare-fun lam21n7 () Int)
(declare-fun lam21n8 () Int)
(declare-fun lam21n9 () Int)
(declare-fun lam21n10 () Int)
(declare-fun lam22n0 () Int)
(declare-fun lam22n1 () Int)
(declare-fun lam22n2 () Int)
(declare-fun lam22n3 () Int)
(declare-fun lam22n4 () Int)
(declare-fun lam22n5 () Int)
(declare-fun lam22n6 () Int)
(declare-fun lam22n7 () Int)
(declare-fun lam22n8 () Int)
(declare-fun lam22n9 () Int)
(declare-fun lam23n0 () Int)
(declare-fun lam23n1 () Int)
(declare-fun lam23n2 () Int)
(declare-fun lam23n3 () Int)
(declare-fun lam23n4 () Int)
(declare-fun lam23n5 () Int)
(declare-fun lam23n6 () Int)
(declare-fun lam23n7 () Int)
(declare-fun lam23n8 () Int)
(declare-fun lam23n9 () Int)
(declare-fun lam23n10 () Int)
(declare-fun lam24n0 () Int)
(declare-fun lam24n1 () Int)
(declare-fun lam24n2 () Int)
(declare-fun lam24n3 () Int)
(declare-fun lam24n4 () Int)
(declare-fun lam24n5 () Int)
(declare-fun lam24n6 () Int)
(declare-fun lam24n7 () Int)
(declare-fun lam24n8 () Int)
(declare-fun lam24n9 () Int)
(declare-fun lam25n0 () Int)
(declare-fun lam25n1 () Int)
(declare-fun lam25n2 () Int)
(declare-fun lam25n3 () Int)
(declare-fun lam25n4 () Int)
(declare-fun lam25n5 () Int)
(declare-fun lam25n6 () Int)
(declare-fun lam25n7 () Int)
(declare-fun lam25n8 () Int)
(declare-fun lam25n9 () Int)
(declare-fun lam25n10 () Int)
(declare-fun lam25n11 () Int)
(declare-fun lam26n0 () Int)
(declare-fun lam26n1 () Int)
(declare-fun lam26n2 () Int)
(declare-fun lam26n3 () Int)
(declare-fun lam26n4 () Int)
(declare-fun lam26n5 () Int)
(declare-fun lam26n6 () Int)
(declare-fun lam26n7 () Int)
(declare-fun lam26n8 () Int)
(declare-fun lam26n9 () Int)
(declare-fun lam26n10 () Int)
(declare-fun lam27n0 () Int)
(declare-fun lam27n1 () Int)
(declare-fun lam27n2 () Int)
(declare-fun lam27n3 () Int)
(declare-fun lam27n4 () Int)
(declare-fun lam27n5 () Int)
(declare-fun lam27n6 () Int)
(declare-fun lam27n7 () Int)
(declare-fun lam27n8 () Int)
(declare-fun lam27n9 () Int)
(declare-fun lam27n10 () Int)
(declare-fun lam27n11 () Int)
(declare-fun lam28n0 () Int)
(declare-fun lam28n1 () Int)
(declare-fun lam28n2 () Int)
(declare-fun lam28n3 () Int)
(declare-fun lam28n4 () Int)
(declare-fun lam28n5 () Int)
(declare-fun lam28n6 () Int)
(declare-fun lam28n7 () Int)
(declare-fun lam28n8 () Int)
(declare-fun lam28n9 () Int)
(declare-fun lam28n10 () Int)
(declare-fun lam28n11 () Int)
(declare-fun lam29n0 () Int)
(declare-fun lam29n1 () Int)
(declare-fun lam29n2 () Int)
(declare-fun lam29n3 () Int)
(declare-fun lam29n4 () Int)
(declare-fun lam29n5 () Int)
(declare-fun lam29n6 () Int)
(declare-fun lam29n7 () Int)
(declare-fun lam29n8 () Int)
(declare-fun lam29n9 () Int)
(declare-fun lam29n10 () Int)
(declare-fun lam29n11 () Int)
(declare-fun lam30n0 () Int)
(declare-fun lam30n1 () Int)
(declare-fun lam30n2 () Int)
(declare-fun lam30n3 () Int)
(declare-fun lam30n4 () Int)
(declare-fun lam30n5 () Int)
(declare-fun lam30n6 () Int)
(declare-fun lam30n7 () Int)
(declare-fun lam30n8 () Int)
(declare-fun lam30n9 () Int)
(declare-fun lam30n10 () Int)
(declare-fun lam30n11 () Int)
(declare-fun lam31n0 () Int)
(declare-fun lam31n1 () Int)
(declare-fun lam31n2 () Int)
(declare-fun lam31n3 () Int)
(declare-fun lam31n4 () Int)
(declare-fun lam31n5 () Int)
(declare-fun lam31n6 () Int)
(declare-fun lam31n7 () Int)
(declare-fun lam31n8 () Int)
(declare-fun lam31n9 () Int)
(declare-fun lam31n10 () Int)
(declare-fun FV_main_x_2 () Int)
(declare-fun FV_main_y_2 () Int)
(assert ( and ( <= ( - 4 ) Nl2main_x1 ) ( <= Nl2main_x1 4 ) ( <= ( - 4 ) Nl2main_y1 ) ( <= Nl2main_y1 4 ) ))
(assert ( or ( and ( >= lam0n0 0 ) ( >= lam0n1 0 ) ( >= lam0n2 0 ) ( >= lam0n3 0 ) ( >= lam0n4 0 ) ( >= lam0n5 0 ) ( >= lam0n6 0 ) ( >= lam0n7 0 ) ( >= lam0n8 0 ) ( >= lam0n9 0 ) ( >= lam0n10 0 ) ( >= lam0n11 0 ) ( > ( + ( * 2 lam0n0 ) ( * 2 lam0n1 ) ( * 2 lam0n2 ) ( * 1 lam0n3 ) ( * 1 lam0n4 ) ( * 3 lam0n5 ) ( * 50001 lam0n6 ) ( * 50001 lam0n7 ) ( * 50001 lam0n8 ) ( * 50001 lam0n9 ) ( * 50001 lam0n10 ) ( * Nl2CT1 lam0n11 ) ( - 1 ) ) 0 ) ( = ( + ( * ( - 4 ) lam0n0 ) ( * ( - 2 ) lam0n1 ) ( * ( - 3 ) lam0n2 ) ( * ( - 1 ) lam0n3 ) ( * ( - 4 ) lam0n4 ) ( * ( - 2 ) lam0n5 ) ( * 1 lam0n6 ) ( * ( - 1 ) lam0n7 ) ( * ( - 1 ) lam0n8 ) ( * ( - 4 ) lam0n9 ) ( * Nl2main_x1 lam0n11 ) ) 0 ) ( = ( + ( * ( - 3 ) lam0n0 ) ( * ( - 1 ) lam0n1 ) ( * ( - 2 ) lam0n2 ) ( * 1 lam0n3 ) ( * 5 lam0n4 ) ( * 1 lam0n5 ) ( * ( - 2 ) lam0n6 ) ( * ( - 1 ) lam0n8 ) ( * 1 lam0n9 ) ( * ( - 1 ) lam0n10 ) ( * Nl2main_y1 lam0n11 ) ) 0 ) ) ( and ( >= lam1n0 0 ) ( >= lam1n1 0 ) ( >= lam1n2 0 ) ( >= lam1n3 0 ) ( >= lam1n4 0 ) ( >= lam1n5 0 ) ( >= lam1n6 0 ) ( >= lam1n7 0 ) ( >= lam1n8 0 ) ( >= lam1n9 0 ) ( >= lam1n10 0 ) ( >= lam1n11 0 ) ( > ( + ( * 2 lam1n0 ) ( * 2 lam1n1 ) ( * 2 lam1n2 ) ( * 1 lam1n3 ) ( * 1 lam1n4 ) ( * 3 lam1n5 ) ( * 50001 lam1n6 ) ( * 50001 lam1n7 ) ( * 50001 lam1n8 ) ( * 50001 lam1n9 ) ( * 50001 lam1n10 ) ( * Nl2CT1 lam1n11 ) ( - 1 ( + ( + Nl2CT1 ( * Nl2main_x1 0 ) ) ( * Nl2main_y1 0 ) ) ) ) 0 ) ( = ( + ( * ( - 4 ) lam1n0 ) ( * ( - 2 ) lam1n1 ) ( * ( - 3 ) lam1n2 ) ( * ( - 1 ) lam1n3 ) ( * ( - 4 ) lam1n4 ) ( * ( - 2 ) lam1n5 ) ( * 1 lam1n6 ) ( * ( - 1 ) lam1n7 ) ( * ( - 1 ) lam1n8 ) ( * ( - 4 ) lam1n9 ) ( * Nl2main_x1 lam1n11 ) ( - ( + ( + 0 ( * Nl2main_x1 2 ) ) ( * Nl2main_y1 4 ) ) ) ) 0 ) ( = ( + ( * ( - 3 ) lam1n0 ) ( * ( - 1 ) lam1n1 ) ( * ( - 2 ) lam1n2 ) ( * 1 lam1n3 ) ( * 5 lam1n4 ) ( * 1 lam1n5 ) ( * ( - 2 ) lam1n6 ) ( * ( - 1 ) lam1n8 ) ( * 1 lam1n9 ) ( * ( - 1 ) lam1n10 ) ( * Nl2main_y1 lam1n11 ) ( - ( + 0 ( * Nl2main_x1 4 ) ) ) ) 0 ) ) ))
(assert ( <= ( + Nl2CT1 ( * Nl2main_x1 FV_main_x_1 ) ( * Nl2main_y1 FV_main_y_1 ) ) 0 ))
(assert ( or ( and ( >= lam3n0 0 ) ( >= lam3n1 0 ) ( >= lam3n2 0 ) ( >= lam3n3 0 ) ( >= lam3n4 0 ) ( >= lam3n5 0 ) ( >= lam3n6 0 ) ( >= lam3n7 0 ) ( >= lam3n8 0 ) ( >= lam3n9 0 ) ( >= lam3n10 0 ) ( > ( + ( * 2 lam3n0 ) ( * 2 lam3n1 ) ( * 2 lam3n2 ) ( * 1 lam3n3 ) ( * 1 lam3n4 ) ( * 3 lam3n5 ) ( * 50001 lam3n6 ) ( * 50001 lam3n7 ) ( * 50001 lam3n8 ) ( * ( - 50000 ) lam3n9 ) ( * Nl2CT1 lam3n10 ) ( - 1 ) ) 0 ) ( = ( + ( * ( - 4 ) lam3n0 ) ( * ( - 2 ) lam3n1 ) ( * ( - 3 ) lam3n2 ) ( * ( - 1 ) lam3n3 ) ( * ( - 4 ) lam3n4 ) ( * ( - 2 ) lam3n5 ) ( * ( - 1 ) lam3n6 ) ( * ( - 1 ) lam3n7 ) ( * ( - 4 ) lam3n8 ) ( * ( - 1 ) lam3n9 ) ( * Nl2main_x1 lam3n10 ) ) 0 ) ( = ( + ( * ( - 3 ) lam3n0 ) ( * ( - 1 ) lam3n1 ) ( * ( - 2 ) lam3n2 ) ( * 1 lam3n3 ) ( * 5 lam3n4 ) ( * 1 lam3n5 ) ( * ( - 1 ) lam3n7 ) ( * 1 lam3n8 ) ( * 2 lam3n9 ) ( * Nl2main_y1 lam3n10 ) ) 0 ) ) ( and ( >= lam4n0 0 ) ( >= lam4n1 0 ) ( >= lam4n2 0 ) ( >= lam4n3 0 ) ( >= lam4n4 0 ) ( >= lam4n5 0 ) ( >= lam4n6 0 ) ( >= lam4n7 0 ) ( >= lam4n8 0 ) ( >= lam4n9 0 ) ( >= lam4n10 0 ) ( >= lam4n11 0 ) ( > ( + ( * 2 lam4n0 ) ( * 2 lam4n1 ) ( * 2 lam4n2 ) ( * 1 lam4n3 ) ( * 1 lam4n4 ) ( * 3 lam4n5 ) ( * 50001 lam4n6 ) ( * 50001 lam4n7 ) ( * ( - 50000 ) lam4n8 ) ( * ( - 50000 ) lam4n9 ) ( * ( - 50000 ) lam4n10 ) ( * Nl2CT1 lam4n11 ) ( - 1 ) ) 0 ) ( = ( + ( * ( - 4 ) lam4n0 ) ( * ( - 2 ) lam4n1 ) ( * ( - 3 ) lam4n2 ) ( * ( - 1 ) lam4n3 ) ( * ( - 4 ) lam4n4 ) ( * ( - 2 ) lam4n5 ) ( * ( - 1 ) lam4n6 ) ( * ( - 4 ) lam4n7 ) ( * 1 lam4n8 ) ( * ( - 1 ) lam4n9 ) ( * Nl2main_x1 lam4n11 ) ) 0 ) ( = ( + ( * ( - 3 ) lam4n0 ) ( * ( - 1 ) lam4n1 ) ( * ( - 2 ) lam4n2 ) ( * 1 lam4n3 ) ( * 5 lam4n4 ) ( * 1 lam4n5 ) ( * 1 lam4n7 ) ( * 1 lam4n8 ) ( * 2 lam4n9 ) ( * 1 lam4n10 ) ( * Nl2main_y1 lam4n11 ) ) 0 ) ) ( and ( >= lam5n0 0 ) ( >= lam5n1 0 ) ( >= lam5n2 0 ) ( >= lam5n3 0 ) ( >= lam5n4 0 ) ( >= lam5n5 0 ) ( >= lam5n6 0 ) ( >= lam5n7 0 ) ( >= lam5n8 0 ) ( >= lam5n9 0 ) ( >= lam5n10 0 ) ( >= lam5n11 0 ) ( > ( + ( * 2 lam5n0 ) ( * 2 lam5n1 ) ( * 2 lam5n2 ) ( * 1 lam5n3 ) ( * 1 lam5n4 ) ( * 3 lam5n5 ) ( * 50001 lam5n6 ) ( * 50001 lam5n7 ) ( * ( - 50000 ) lam5n8 ) ( * ( - 50000 ) lam5n9 ) ( * ( - 50000 ) lam5n10 ) ( * Nl2CT1 lam5n11 ) ( - 1 ) ) 0 ) ( = ( + ( * ( - 4 ) lam5n0 ) ( * ( - 2 ) lam5n1 ) ( * ( - 3 ) lam5n2 ) ( * ( - 1 ) lam5n3 ) ( * ( - 4 ) lam5n4 ) ( * ( - 2 ) lam5n5 ) ( * ( - 1 ) lam5n6 ) ( * ( - 4 ) lam5n7 ) ( * 1 lam5n8 ) ( * ( - 1 ) lam5n9 ) ( * Nl2main_x1 lam5n11 ) ) 0 ) ( = ( + ( * ( - 3 ) lam5n0 ) ( * ( - 1 ) lam5n1 ) ( * ( - 2 ) lam5n2 ) ( * 1 lam5n3 ) ( * 5 lam5n4 ) ( * 1 lam5n5 ) ( * ( - 1 ) lam5n6 ) ( * 1 lam5n7 ) ( * 2 lam5n9 ) ( * 1 lam5n10 ) ( * Nl2main_y1 lam5n11 ) ) 0 ) ) ( and ( >= lam6n0 0 ) ( >= lam6n1 0 ) ( >= lam6n2 0 ) ( >= lam6n3 0 ) ( >= lam6n4 0 ) ( >= lam6n5 0 ) ( >= lam6n6 0 ) ( >= lam6n7 0 ) ( >= lam6n8 0 ) ( >= lam6n9 0 ) ( >= lam6n10 0 ) ( > ( + ( * 2 lam6n0 ) ( * 2 lam6n1 ) ( * 2 lam6n2 ) ( * 1 lam6n3 ) ( * 1 lam6n4 ) ( * 3 lam6n5 ) ( * ( - 50000 ) lam6n6 ) ( * ( - 50000 ) lam6n7 ) ( * ( - 50000 ) lam6n8 ) ( * ( - 50000 ) lam6n9 ) ( * Nl2CT1 lam6n10 ) ( - 1 ) ) 0 ) ( = ( + ( * ( - 4 ) lam6n0 ) ( * ( - 2 ) lam6n1 ) ( * ( - 3 ) lam6n2 ) ( * ( - 1 ) lam6n3 ) ( * ( - 4 ) lam6n4 ) ( * ( - 2 ) lam6n5 ) ( * 1 lam6n6 ) ( * 1 lam6n7 ) ( * ( - 1 ) lam6n8 ) ( * Nl2main_x1 lam6n10 ) ) 0 ) ( = ( + ( * ( - 3 ) lam6n0 ) ( * ( - 1 ) lam6n1 ) ( * ( - 2 ) lam6n2 ) ( * 1 lam6n3 ) ( * 5 lam6n4 ) ( * 1 lam6n5 ) ( * 1 lam6n7 ) ( * 2 lam6n8 ) ( * 1 lam6n9 ) ( * Nl2main_y1 lam6n10 ) ) 0 ) ) ( and ( >= lam7n0 0 ) ( >= lam7n1 0 ) ( >= lam7n2 0 ) ( >= lam7n3 0 ) ( >= lam7n4 0 ) ( >= lam7n5 0 ) ( >= lam7n6 0 ) ( >= lam7n7 0 ) ( >= lam7n8 0 ) ( >= lam7n9 0 ) ( >= lam7n10 0 ) ( >= lam7n11 0 ) ( > ( + ( * 2 lam7n0 ) ( * 2 lam7n1 ) ( * 2 lam7n2 ) ( * 1 lam7n3 ) ( * 1 lam7n4 ) ( * ( - 2 ) lam7n5 ) ( * ( - 50000 ) lam7n6 ) ( * ( - 50000 ) lam7n7 ) ( * ( - 50000 ) lam7n8 ) ( * ( - 50000 ) lam7n9 ) ( * ( - 50000 ) lam7n10 ) ( * Nl2CT1 lam7n11 ) ( - 1 ) ) 0 ) ( = ( + ( * ( - 4 ) lam7n0 ) ( * ( - 2 ) lam7n1 ) ( * ( - 3 ) lam7n2 ) ( * ( - 1 ) lam7n3 ) ( * ( - 4 ) lam7n4 ) ( * 2 lam7n5 ) ( * 4 lam7n6 ) ( * 1 lam7n7 ) ( * 1 lam7n8 ) ( * ( - 1 ) lam7n9 ) ( * Nl2main_x1 lam7n11 ) ) 0 ) ( = ( + ( * ( - 3 ) lam7n0 ) ( * ( - 1 ) lam7n1 ) ( * ( - 2 ) lam7n2 ) ( * 1 lam7n3 ) ( * 5 lam7n4 ) ( * ( - 1 ) lam7n5 ) ( * ( - 1 ) lam7n6 ) ( * 1 lam7n8 ) ( * 2 lam7n9 ) ( * 1 lam7n10 ) ( * Nl2main_y1 lam7n11 ) ) 0 ) ) ( and ( >= lam8n0 0 ) ( >= lam8n1 0 ) ( >= lam8n2 0 ) ( >= lam8n3 0 ) ( >= lam8n4 0 ) ( >= lam8n5 0 ) ( >= lam8n6 0 ) ( >= lam8n7 0 ) ( >= lam8n8 0 ) ( >= lam8n9 0 ) ( >= lam8n10 0 ) ( > ( + ( * 2 lam8n1 ) ( * 2 lam8n2 ) ( * 2 lam8n3 ) ( * 1 lam8n4 ) ( * 3 lam8n5 ) ( * 50001 lam8n6 ) ( * 50001 lam8n7 ) ( * 50001 lam8n8 ) ( * ( - 50000 ) lam8n9 ) ( * Nl2CT1 lam8n10 ) ( - 1 ) ) 0 ) ( = ( + ( * 4 lam8n0 ) ( * ( - 4 ) lam8n1 ) ( * ( - 2 ) lam8n2 ) ( * ( - 3 ) lam8n3 ) ( * ( - 1 ) lam8n4 ) ( * ( - 2 ) lam8n5 ) ( * ( - 1 ) lam8n6 ) ( * ( - 1 ) lam8n7 ) ( * ( - 4 ) lam8n8 ) ( * ( - 1 ) lam8n9 ) ( * Nl2main_x1 lam8n10 ) ) 0 ) ( = ( + ( * ( - 5 ) lam8n0 ) ( * ( - 3 ) lam8n1 ) ( * ( - 1 ) lam8n2 ) ( * ( - 2 ) lam8n3 ) ( * 1 lam8n4 ) ( * 1 lam8n5 ) ( * ( - 1 ) lam8n7 ) ( * 1 lam8n8 ) ( * 2 lam8n9 ) ( * Nl2main_y1 lam8n10 ) ) 0 ) ) ( and ( >= lam9n0 0 ) ( >= lam9n1 0 ) ( >= lam9n2 0 ) ( >= lam9n3 0 ) ( >= lam9n4 0 ) ( >= lam9n5 0 ) ( >= lam9n6 0 ) ( >= lam9n7 0 ) ( >= lam9n8 0 ) ( >= lam9n9 0 ) ( >= lam9n10 0 ) ( >= lam9n11 0 ) ( > ( + ( * 2 lam9n1 ) ( * 2 lam9n2 ) ( * 2 lam9n3 ) ( * 1 lam9n4 ) ( * 3 lam9n5 ) ( * 50001 lam9n6 ) ( * 50001 lam9n7 ) ( * ( - 50000 ) lam9n8 ) ( * ( - 50000 ) lam9n9 ) ( * ( - 50000 ) lam9n10 ) ( * Nl2CT1 lam9n11 ) ( - 1 ) ) 0 ) ( = ( + ( * 4 lam9n0 ) ( * ( - 4 ) lam9n1 ) ( * ( - 2 ) lam9n2 ) ( * ( - 3 ) lam9n3 ) ( * ( - 1 ) lam9n4 ) ( * ( - 2 ) lam9n5 ) ( * ( - 1 ) lam9n6 ) ( * ( - 4 ) lam9n7 ) ( * 1 lam9n8 ) ( * ( - 1 ) lam9n9 ) ( * Nl2main_x1 lam9n11 ) ) 0 ) ( = ( + ( * ( - 5 ) lam9n0 ) ( * ( - 3 ) lam9n1 ) ( * ( - 1 ) lam9n2 ) ( * ( - 2 ) lam9n3 ) ( * 1 lam9n4 ) ( * 1 lam9n5 ) ( * ( - 1 ) lam9n6 ) ( * 1 lam9n7 ) ( * 2 lam9n9 ) ( * 1 lam9n10 ) ( * Nl2main_y1 lam9n11 ) ) 0 ) ) ( and ( >= lam10n0 0 ) ( >= lam10n1 0 ) ( >= lam10n2 0 ) ( >= lam10n3 0 ) ( >= lam10n4 0 ) ( >= lam10n5 0 ) ( >= lam10n6 0 ) ( >= lam10n7 0 ) ( >= lam10n8 0 ) ( >= lam10n9 0 ) ( >= lam10n10 0 ) ( > ( + ( * 2 lam10n1 ) ( * 2 lam10n2 ) ( * 2 lam10n3 ) ( * 1 lam10n4 ) ( * 3 lam10n5 ) ( * ( - 50000 ) lam10n6 ) ( * ( - 50000 ) lam10n7 ) ( * ( - 50000 ) lam10n8 ) ( * ( - 50000 ) lam10n9 ) ( * Nl2CT1 lam10n10 ) ( - 1 ) ) 0 ) ( = ( + ( * 4 lam10n0 ) ( * ( - 4 ) lam10n1 ) ( * ( - 2 ) lam10n2 ) ( * ( - 3 ) lam10n3 ) ( * ( - 1 ) lam10n4 ) ( * ( - 2 ) lam10n5 ) ( * 1 lam10n6 ) ( * 1 lam10n7 ) ( * ( - 1 ) lam10n8 ) ( * Nl2main_x1 lam10n10 ) ) 0 ) ( = ( + ( * ( - 5 ) lam10n0 ) ( * ( - 3 ) lam10n1 ) ( * ( - 1 ) lam10n2 ) ( * ( - 2 ) lam10n3 ) ( * 1 lam10n4 ) ( * 1 lam10n5 ) ( * 1 lam10n7 ) ( * 2 lam10n8 ) ( * 1 lam10n9 ) ( * Nl2main_y1 lam10n10 ) ) 0 ) ) ( and ( >= lam11n0 0 ) ( >= lam11n1 0 ) ( >= lam11n2 0 ) ( >= lam11n3 0 ) ( >= lam11n4 0 ) ( >= lam11n5 0 ) ( >= lam11n6 0 ) ( >= lam11n7 0 ) ( >= lam11n8 0 ) ( >= lam11n9 0 ) ( >= lam11n10 0 ) ( >= lam11n11 0 ) ( > ( + ( * 2 lam11n1 ) ( * 2 lam11n2 ) ( * 2 lam11n3 ) ( * 1 lam11n4 ) ( * 3 lam11n5 ) ( * 50001 lam11n6 ) ( * 50001 lam11n7 ) ( * 50001 lam11n8 ) ( * 50001 lam11n9 ) ( * 50001 lam11n10 ) ( * Nl2CT1 lam11n11 ) ( - 1 ) ) 0 ) ( = ( + ( * 4 lam11n0 ) ( * ( - 4 ) lam11n1 ) ( * ( - 2 ) lam11n2 ) ( * ( - 3 ) lam11n3 ) ( * ( - 1 ) lam11n4 ) ( * ( - 2 ) lam11n5 ) ( * 1 lam11n6 ) ( * ( - 1 ) lam11n7 ) ( * ( - 1 ) lam11n8 ) ( * ( - 4 ) lam11n9 ) ( * Nl2main_x1 lam11n11 ) ) 0 ) ( = ( + ( * ( - 5 ) lam11n0 ) ( * ( - 3 ) lam11n1 ) ( * ( - 1 ) lam11n2 ) ( * ( - 2 ) lam11n3 ) ( * 1 lam11n4 ) ( * 1 lam11n5 ) ( * ( - 2 ) lam11n6 ) ( * ( - 1 ) lam11n8 ) ( * 1 lam11n9 ) ( * ( - 1 ) lam11n10 ) ( * Nl2main_y1 lam11n11 ) ) 0 ) ) ( and ( >= lam12n0 0 ) ( >= lam12n1 0 ) ( >= lam12n2 0 ) ( >= lam12n3 0 ) ( >= lam12n4 0 ) ( >= lam12n5 0 ) ( >= lam12n6 0 ) ( >= lam12n7 0 ) ( >= lam12n8 0 ) ( >= lam12n9 0 ) ( > ( + ( * 2 lam12n2 ) ( * 2 lam12n3 ) ( * 2 lam12n4 ) ( * 3 lam12n5 ) ( * ( - 50000 ) lam12n6 ) ( * ( - 50000 ) lam12n7 ) ( * ( - 50000 ) lam12n8 ) ( * Nl2CT1 lam12n9 ) ( - 1 ) ) 0 ) ( = ( + ( * 4 lam12n0 ) ( * 1 lam12n1 ) ( * ( - 4 ) lam12n2 ) ( * ( - 2 ) lam12n3 ) ( * ( - 3 ) lam12n4 ) ( * ( - 2 ) lam12n5 ) ( * 1 lam12n6 ) ( * ( - 1 ) lam12n7 ) ( * Nl2main_x1 lam12n9 ) ) 0 ) ( = ( + ( * ( - 5 ) lam12n0 ) ( * ( - 1 ) lam12n1 ) ( * ( - 3 ) lam12n2 ) ( * ( - 1 ) lam12n3 ) ( * ( - 2 ) lam12n4 ) ( * 1 lam12n5 ) ( * 2 lam12n7 ) ( * 1 lam12n8 ) ( * Nl2main_y1 lam12n9 ) ) 0 ) ) ( and ( >= lam13n0 0 ) ( >= lam13n1 0 ) ( >= lam13n2 0 ) ( >= lam13n3 0 ) ( >= lam13n4 0 ) ( >= lam13n5 0 ) ( >= lam13n6 0 ) ( >= lam13n7 0 ) ( >= lam13n8 0 ) ( >= lam13n9 0 ) ( >= lam13n10 0 ) ( >= lam13n11 0 ) ( > ( + ( * 2 lam13n2 ) ( * 2 lam13n3 ) ( * 2 lam13n4 ) ( * 3 lam13n5 ) ( * 50001 lam13n6 ) ( * 50001 lam13n7 ) ( * 50001 lam13n8 ) ( * 50001 lam13n9 ) ( * 50001 lam13n10 ) ( * Nl2CT1 lam13n11 ) ( - 1 ) ) 0 ) ( = ( + ( * 4 lam13n0 ) ( * 1 lam13n1 ) ( * ( - 4 ) lam13n2 ) ( * ( - 2 ) lam13n3 ) ( * ( - 3 ) lam13n4 ) ( * ( - 2 ) lam13n5 ) ( * 1 lam13n6 ) ( * ( - 1 ) lam13n7 ) ( * ( - 1 ) lam13n8 ) ( * ( - 4 ) lam13n9 ) ( * Nl2main_x1 lam13n11 ) ) 0 ) ( = ( + ( * ( - 5 ) lam13n0 ) ( * ( - 1 ) lam13n1 ) ( * ( - 3 ) lam13n2 ) ( * ( - 1 ) lam13n3 ) ( * ( - 2 ) lam13n4 ) ( * 1 lam13n5 ) ( * ( - 2 ) lam13n6 ) ( * ( - 1 ) lam13n8 ) ( * 1 lam13n9 ) ( * ( - 1 ) lam13n10 ) ( * Nl2main_y1 lam13n11 ) ) 0 ) ) ( and ( >= lam14n0 0 ) ( >= lam14n1 0 ) ( >= lam14n2 0 ) ( >= lam14n3 0 ) ( >= lam14n4 0 ) ( >= lam14n5 0 ) ( >= lam14n6 0 ) ( >= lam14n7 0 ) ( >= lam14n8 0 ) ( >= lam14n9 0 ) ( >= lam14n10 0 ) ( > ( + ( * 2 lam14n2 ) ( * 2 lam14n3 ) ( * 2 lam14n4 ) ( * 3 lam14n5 ) ( * 50001 lam14n6 ) ( * 50001 lam14n7 ) ( * 50001 lam14n8 ) ( * ( - 50000 ) lam14n9 ) ( * Nl2CT1 lam14n10 ) ( - 1 ) ) 0 ) ( = ( + ( * 4 lam14n0 ) ( * 1 lam14n1 ) ( * ( - 4 ) lam14n2 ) ( * ( - 2 ) lam14n3 ) ( * ( - 3 ) lam14n4 ) ( * ( - 2 ) lam14n5 ) ( * 1 lam14n6 ) ( * ( - 1 ) lam14n7 ) ( * ( - 4 ) lam14n8 ) ( * 1 lam14n9 ) ( * Nl2main_x1 lam14n10 ) ) 0 ) ( = ( + ( * ( - 5 ) lam14n0 ) ( * ( - 1 ) lam14n1 ) ( * ( - 3 ) lam14n2 ) ( * ( - 1 ) lam14n3 ) ( * ( - 2 ) lam14n4 ) ( * 1 lam14n5 ) ( * ( - 2 ) lam14n6 ) ( * ( - 1 ) lam14n7 ) ( * 1 lam14n8 ) ( * Nl2main_y1 lam14n10 ) ) 0 ) ) ( and ( >= lam15n0 0 ) ( >= lam15n1 0 ) ( >= lam15n2 0 ) ( >= lam15n3 0 ) ( >= lam15n4 0 ) ( >= lam15n5 0 ) ( >= lam15n6 0 ) ( >= lam15n7 0 ) ( >= lam15n8 0 ) ( >= lam15n9 0 ) ( >= lam15n10 0 ) ( >= lam15n11 0 ) ( > ( + ( * 2 lam15n2 ) ( * 2 lam15n3 ) ( * 2 lam15n4 ) ( * 3 lam15n5 ) ( * 50001 lam15n6 ) ( * 50001 lam15n7 ) ( * ( - 50000 ) lam15n8 ) ( * ( - 50000 ) lam15n9 ) ( * ( - 50000 ) lam15n10 ) ( * Nl2CT1 lam15n11 ) ( - 1 ) ) 0 ) ( = ( + ( * 4 lam15n0 ) ( * 1 lam15n1 ) ( * ( - 4 ) lam15n2 ) ( * ( - 2 ) lam15n3 ) ( * ( - 3 ) lam15n4 ) ( * ( - 2 ) lam15n5 ) ( * 1 lam15n6 ) ( * ( - 1 ) lam15n7 ) ( * 4 lam15n8 ) ( * 1 lam15n9 ) ( * Nl2main_x1 lam15n11 ) ) 0 ) ( = ( + ( * ( - 5 ) lam15n0 ) ( * ( - 1 ) lam15n1 ) ( * ( - 3 ) lam15n2 ) ( * ( - 1 ) lam15n3 ) ( * ( - 2 ) lam15n4 ) ( * 1 lam15n5 ) ( * ( - 2 ) lam15n6 ) ( * ( - 1 ) lam15n7 ) ( * ( - 1 ) lam15n8 ) ( * 1 lam15n10 ) ( * Nl2main_y1 lam15n11 ) ) 0 ) ) ( and ( >= lam16n0 0 ) ( >= lam16n1 0 ) ( >= lam16n2 0 ) ( >= lam16n3 0 ) ( >= lam16n4 0 ) ( >= lam16n5 0 ) ( >= lam16n6 0 ) ( >= lam16n7 0 ) ( >= lam16n8 0 ) ( >= lam16n9 0 ) ( >= lam16n10 0 ) ( > ( + ( * 2 lam16n2 ) ( * 2 lam16n3 ) ( * 2 lam16n4 ) ( * ( - 2 ) lam16n5 ) ( * ( - 50000 ) lam16n6 ) ( * ( - 50000 ) lam16n7 ) ( * ( - 50000 ) lam16n8 ) ( * ( - 50000 ) lam16n9 ) ( * Nl2CT1 lam16n10 ) ( - 1 ) ) 0 ) ( = ( + ( * 4 lam16n0 ) ( * 1 lam16n1 ) ( * ( - 4 ) lam16n2 ) ( * ( - 2 ) lam16n3 ) ( * ( - 3 ) lam16n4 ) ( * 2 lam16n5 ) ( * 4 lam16n6 ) ( * 1 lam16n7 ) ( * ( - 1 ) lam16n8 ) ( * Nl2main_x1 lam16n10 ) ) 0 ) ( = ( + ( * ( - 5 ) lam16n0 ) ( * ( - 1 ) lam16n1 ) ( * ( - 3 ) lam16n2 ) ( * ( - 1 ) lam16n3 ) ( * ( - 2 ) lam16n4 ) ( * ( - 1 ) lam16n5 ) ( * ( - 1 ) lam16n6 ) ( * 2 lam16n8 ) ( * 1 lam16n9 ) ( * Nl2main_y1 lam16n10 ) ) 0 ) ) ( and ( >= lam17n0 0 ) ( >= lam17n1 0 ) ( >= lam17n2 0 ) ( >= lam17n3 0 ) ( >= lam17n4 0 ) ( >= lam17n5 0 ) ( >= lam17n6 0 ) ( >= lam17n7 0 ) ( >= lam17n8 0 ) ( >= lam17n9 0 ) ( >= lam17n10 0 ) ( > ( + ( * 2 lam17n2 ) ( * 2 lam17n3 ) ( * 2 lam17n4 ) ( * ( - 2 ) lam17n5 ) ( * 50001 lam17n6 ) ( * 50001 lam17n7 ) ( * 50001 lam17n8 ) ( * 50001 lam17n9 ) ( * Nl2CT1 lam17n10 ) ( - 1 ) ) 0 ) ( = ( + ( * 4 lam17n0 ) ( * 1 lam17n1 ) ( * ( - 4 ) lam17n2 ) ( * ( - 2 ) lam17n3 ) ( * ( - 3 ) lam17n4 ) ( * 2 lam17n5 ) ( * 1 lam17n6 ) ( * ( - 1 ) lam17n7 ) ( * ( - 1 ) lam17n8 ) ( * Nl2main_x1 lam17n10 ) ) 0 ) ( = ( + ( * ( - 5 ) lam17n0 ) ( * ( - 1 ) lam17n1 ) ( * ( - 3 ) lam17n2 ) ( * ( - 1 ) lam17n3 ) ( * ( - 2 ) lam17n4 ) ( * ( - 1 ) lam17n5 ) ( * ( - 2 ) lam17n6 ) ( * ( - 1 ) lam17n8 ) ( * ( - 1 ) lam17n9 ) ( * Nl2main_y1 lam17n10 ) ) 0 ) ) ( and ( >= lam18n0 0 ) ( >= lam18n1 0 ) ( >= lam18n2 0 ) ( >= lam18n3 0 ) ( >= lam18n4 0 ) ( >= lam18n5 0 ) ( >= lam18n6 0 ) ( >= lam18n7 0 ) ( >= lam18n8 0 ) ( >= lam18n9 0 ) ( > ( + ( * 2 lam18n2 ) ( * 2 lam18n3 ) ( * 2 lam18n4 ) ( * ( - 2 ) lam18n5 ) ( * 50001 lam18n6 ) ( * 50001 lam18n7 ) ( * ( - 50000 ) lam18n8 ) ( * Nl2CT1 lam18n9 ) ( - 1 ) ) 0 ) ( = ( + ( * 4 lam18n0 ) ( * 1 lam18n1 ) ( * ( - 4 ) lam18n2 ) ( * ( - 2 ) lam18n3 ) ( * ( - 3 ) lam18n4 ) ( * 2 lam18n5 ) ( * 1 lam18n6 ) ( * ( - 1 ) lam18n7 ) ( * 1 lam18n8 ) ( * Nl2main_x1 lam18n9 ) ) 0 ) ( = ( + ( * ( - 5 ) lam18n0 ) ( * ( - 1 ) lam18n1 ) ( * ( - 3 ) lam18n2 ) ( * ( - 1 ) lam18n3 ) ( * ( - 2 ) lam18n4 ) ( * ( - 1 ) lam18n5 ) ( * ( - 2 ) lam18n6 ) ( * ( - 1 ) lam18n7 ) ( * Nl2main_y1 lam18n9 ) ) 0 ) ) ( and ( >= lam19n0 0 ) ( >= lam19n1 0 ) ( >= lam19n2 0 ) ( >= lam19n3 0 ) ( >= lam19n4 0 ) ( >= lam19n5 0 ) ( >= lam19n6 0 ) ( >= lam19n7 0 ) ( >= lam19n8 0 ) ( >= lam19n9 0 ) ( >= lam19n10 0 ) ( > ( + ( * 2 lam19n2 ) ( * 2 lam19n3 ) ( * 2 lam19n4 ) ( * ( - 2 ) lam19n5 ) ( * 50001 lam19n6 ) ( * ( - 50000 ) lam19n7 ) ( * ( - 50000 ) lam19n8 ) ( * ( - 50000 ) lam19n9 ) ( * Nl2CT1 lam19n10 ) ( - 1 ) ) 0 ) ( = ( + ( * 4 lam19n0 ) ( * 1 lam19n1 ) ( * ( - 4 ) lam19n2 ) ( * ( - 2 ) lam19n3 ) ( * ( - 3 ) lam19n4 ) ( * 2 lam19n5 ) ( * 1 lam19n6 ) ( * 4 lam19n7 ) ( * 1 lam19n8 ) ( * 1 lam19n9 ) ( * Nl2main_x1 lam19n10 ) ) 0 ) ( = ( + ( * ( - 5 ) lam19n0 ) ( * ( - 1 ) lam19n1 ) ( * ( - 3 ) lam19n2 ) ( * ( - 1 ) lam19n3 ) ( * ( - 2 ) lam19n4 ) ( * ( - 1 ) lam19n5 ) ( * ( - 2 ) lam19n6 ) ( * ( - 1 ) lam19n7 ) ( * 1 lam19n9 ) ( * Nl2main_y1 lam19n10 ) ) 0 ) ) ( and ( >= lam20n0 0 ) ( >= lam20n1 0 ) ( >= lam20n2 0 ) ( >= lam20n3 0 ) ( >= lam20n4 0 ) ( >= lam20n5 0 ) ( >= lam20n6 0 ) ( >= lam20n7 0 ) ( >= lam20n8 0 ) ( >= lam20n9 0 ) ( >= lam20n10 0 ) ( > ( + ( * 2 lam20n2 ) ( * ( - 1 ) lam20n3 ) ( * ( - 2 ) lam20n4 ) ( * ( - 50000 ) lam20n5 ) ( * ( - 50000 ) lam20n6 ) ( * ( - 50000 ) lam20n7 ) ( * ( - 50000 ) lam20n8 ) ( * ( - 50000 ) lam20n9 ) ( * Nl2CT1 lam20n10 ) ( - 1 ) ) 0 ) ( = ( + ( * 4 lam20n0 ) ( * 1 lam20n1 ) ( * ( - 4 ) lam20n2 ) ( * 2 lam20n3 ) ( * 2 lam20n4 ) ( * 4 lam20n5 ) ( * 1 lam20n6 ) ( * 1 lam20n7 ) ( * ( - 1 ) lam20n8 ) ( * Nl2main_x1 lam20n10 ) ) 0 ) ( = ( + ( * ( - 5 ) lam20n0 ) ( * ( - 1 ) lam20n1 ) ( * ( - 3 ) lam20n2 ) ( * 1 lam20n3 ) ( * ( - 1 ) lam20n4 ) ( * ( - 1 ) lam20n5 ) ( * 1 lam20n7 ) ( * 2 lam20n8 ) ( * 1 lam20n9 ) ( * Nl2main_y1 lam20n10 ) ) 0 ) ) ( and ( >= lam21n0 0 ) ( >= lam21n1 0 ) ( >= lam21n2 0 ) ( >= lam21n3 0 ) ( >= lam21n4 0 ) ( >= lam21n5 0 ) ( >= lam21n6 0 ) ( >= lam21n7 0 ) ( >= lam21n8 0 ) ( >= lam21n9 0 ) ( >= lam21n10 0 ) ( > ( + ( * 2 lam21n2 ) ( * ( - 1 ) lam21n3 ) ( * ( - 2 ) lam21n4 ) ( * 50001 lam21n5 ) ( * 50001 lam21n6 ) ( * 50001 lam21n7 ) ( * ( - 50000 ) lam21n8 ) ( * ( - 50000 ) lam21n9 ) ( * Nl2CT1 lam21n10 ) ( - 1 ) ) 0 ) ( = ( + ( * 4 lam21n0 ) ( * 1 lam21n1 ) ( * ( - 4 ) lam21n2 ) ( * 2 lam21n3 ) ( * 2 lam21n4 ) ( * 1 lam21n5 ) ( * ( - 1 ) lam21n6 ) ( * 4 lam21n8 ) ( * 1 lam21n9 ) ( * Nl2main_x1 lam21n10 ) ) 0 ) ( = ( + ( * ( - 5 ) lam21n0 ) ( * ( - 1 ) lam21n1 ) ( * ( - 3 ) lam21n2 ) ( * 1 lam21n3 ) ( * ( - 1 ) lam21n4 ) ( * ( - 2 ) lam21n5 ) ( * ( - 1 ) lam21n6 ) ( * ( - 1 ) lam21n7 ) ( * ( - 1 ) lam21n8 ) ( * Nl2main_y1 lam21n10 ) ) 0 ) ) ( and ( >= lam22n0 0 ) ( >= lam22n1 0 ) ( >= lam22n2 0 ) ( >= lam22n3 0 ) ( >= lam22n4 0 ) ( >= lam22n5 0 ) ( >= lam22n6 0 ) ( >= lam22n7 0 ) ( >= lam22n8 0 ) ( >= lam22n9 0 ) ( > ( + ( * 2 lam22n2 ) ( * ( - 1 ) lam22n3 ) ( * ( - 2 ) lam22n4 ) ( * 50001 lam22n5 ) ( * ( - 50000 ) lam22n6 ) ( * ( - 50000 ) lam22n7 ) ( * ( - 50000 ) lam22n8 ) ( * Nl2CT1 lam22n9 ) ( - 1 ) ) 0 ) ( = ( + ( * 4 lam22n0 ) ( * 1 lam22n1 ) ( * ( - 4 ) lam22n2 ) ( * 2 lam22n3 ) ( * 2 lam22n4 ) ( * 1 lam22n5 ) ( * 4 lam22n6 ) ( * 1 lam22n7 ) ( * 1 lam22n8 ) ( * Nl2main_x1 lam22n9 ) ) 0 ) ( = ( + ( * ( - 5 ) lam22n0 ) ( * ( - 1 ) lam22n1 ) ( * ( - 3 ) lam22n2 ) ( * 1 lam22n3 ) ( * ( - 1 ) lam22n4 ) ( * ( - 2 ) lam22n5 ) ( * ( - 1 ) lam22n6 ) ( * 1 lam22n8 ) ( * Nl2main_y1 lam22n9 ) ) 0 ) ) ( and ( >= lam23n0 0 ) ( >= lam23n1 0 ) ( >= lam23n2 0 ) ( >= lam23n3 0 ) ( >= lam23n4 0 ) ( >= lam23n5 0 ) ( >= lam23n6 0 ) ( >= lam23n7 0 ) ( >= lam23n8 0 ) ( >= lam23n9 0 ) ( >= lam23n10 0 ) ( > ( + ( * 2 lam23n0 ) ( * 1 lam23n1 ) ( * 1 lam23n2 ) ( * ( - 1 ) lam23n3 ) ( * 3 lam23n4 ) ( * 50001 lam23n5 ) ( * 50001 lam23n6 ) ( * ( - 50000 ) lam23n7 ) ( * ( - 50000 ) lam23n8 ) ( * ( - 50000 ) lam23n9 ) ( * Nl2CT1 lam23n10 ) ( - 1 ) ) 0 ) ( = ( + ( * ( - 2 ) lam23n0 ) ( * ( - 1 ) lam23n1 ) ( * ( - 4 ) lam23n2 ) ( * 4 lam23n3 ) ( * ( - 2 ) lam23n4 ) ( * ( - 1 ) lam23n5 ) ( * ( - 4 ) lam23n6 ) ( * 1 lam23n7 ) ( * ( - 1 ) lam23n8 ) ( * Nl2main_x1 lam23n10 ) ) 0 ) ( = ( + ( * ( - 1 ) lam23n0 ) ( * 1 lam23n1 ) ( * 5 lam23n2 ) ( * 3 lam23n3 ) ( * 1 lam23n4 ) ( * 1 lam23n6 ) ( * 1 lam23n7 ) ( * 2 lam23n8 ) ( * 1 lam23n9 ) ( * Nl2main_y1 lam23n10 ) ) 0 ) ) ( and ( >= lam24n0 0 ) ( >= lam24n1 0 ) ( >= lam24n2 0 ) ( >= lam24n3 0 ) ( >= lam24n4 0 ) ( >= lam24n5 0 ) ( >= lam24n6 0 ) ( >= lam24n7 0 ) ( >= lam24n8 0 ) ( >= lam24n9 0 ) ( > ( + ( * 2 lam24n0 ) ( * 1 lam24n1 ) ( * 1 lam24n2 ) ( * ( - 1 ) lam24n3 ) ( * 3 lam24n4 ) ( * ( - 50000 ) lam24n5 ) ( * ( - 50000 ) lam24n6 ) ( * ( - 50000 ) lam24n7 ) ( * ( - 50000 ) lam24n8 ) ( * Nl2CT1 lam24n9 ) ( - 1 ) ) 0 ) ( = ( + ( * ( - 2 ) lam24n0 ) ( * ( - 1 ) lam24n1 ) ( * ( - 4 ) lam24n2 ) ( * 4 lam24n3 ) ( * ( - 2 ) lam24n4 ) ( * 1 lam24n5 ) ( * 1 lam24n6 ) ( * ( - 1 ) lam24n7 ) ( * Nl2main_x1 lam24n9 ) ) 0 ) ( = ( + ( * ( - 1 ) lam24n0 ) ( * 1 lam24n1 ) ( * 5 lam24n2 ) ( * 3 lam24n3 ) ( * 1 lam24n4 ) ( * 1 lam24n6 ) ( * 2 lam24n7 ) ( * 1 lam24n8 ) ( * Nl2main_y1 lam24n9 ) ) 0 ) ) ( and ( >= lam25n0 0 ) ( >= lam25n1 0 ) ( >= lam25n2 0 ) ( >= lam25n3 0 ) ( >= lam25n4 0 ) ( >= lam25n5 0 ) ( >= lam25n6 0 ) ( >= lam25n7 0 ) ( >= lam25n8 0 ) ( >= lam25n9 0 ) ( >= lam25n10 0 ) ( >= lam25n11 0 ) ( > ( + ( * 1 lam25n0 ) ( * 1 lam25n1 ) ( * ( - 1 ) lam25n2 ) ( * ( - 1 ) lam25n3 ) ( * ( - 1 ) lam25n4 ) ( * 3 lam25n5 ) ( * 50001 lam25n6 ) ( * 50001 lam25n7 ) ( * ( - 50000 ) lam25n8 ) ( * ( - 50000 ) lam25n9 ) ( * ( - 50000 ) lam25n10 ) ( * Nl2CT1 lam25n11 ) ( - 1 ) ) 0 ) ( = ( + ( * ( - 1 ) lam25n0 ) ( * ( - 4 ) lam25n1 ) ( * 4 lam25n2 ) ( * 2 lam25n3 ) ( * 3 lam25n4 ) ( * ( - 2 ) lam25n5 ) ( * ( - 1 ) lam25n6 ) ( * ( - 4 ) lam25n7 ) ( * 1 lam25n8 ) ( * ( - 1 ) lam25n9 ) ( * Nl2main_x1 lam25n11 ) ) 0 ) ( = ( + ( * 1 lam25n0 ) ( * 5 lam25n1 ) ( * 3 lam25n2 ) ( * 1 lam25n3 ) ( * 2 lam25n4 ) ( * 1 lam25n5 ) ( * 1 lam25n7 ) ( * 1 lam25n8 ) ( * 2 lam25n9 ) ( * 1 lam25n10 ) ( * Nl2main_y1 lam25n11 ) ) 0 ) ) ( and ( >= lam26n0 0 ) ( >= lam26n1 0 ) ( >= lam26n2 0 ) ( >= lam26n3 0 ) ( >= lam26n4 0 ) ( >= lam26n5 0 ) ( >= lam26n6 0 ) ( >= lam26n7 0 ) ( >= lam26n8 0 ) ( >= lam26n9 0 ) ( >= lam26n10 0 ) ( > ( + ( * 1 lam26n0 ) ( * 1 lam26n1 ) ( * ( - 1 ) lam26n2 ) ( * ( - 1 ) lam26n3 ) ( * ( - 1 ) lam26n4 ) ( * 3 lam26n5 ) ( * ( - 50000 ) lam26n6 ) ( * ( - 50000 ) lam26n7 ) ( * ( - 50000 ) lam26n8 ) ( * ( - 50000 ) lam26n9 ) ( * Nl2CT1 lam26n10 ) ( - 1 ) ) 0 ) ( = ( + ( * ( - 1 ) lam26n0 ) ( * ( - 4 ) lam26n1 ) ( * 4 lam26n2 ) ( * 2 lam26n3 ) ( * 3 lam26n4 ) ( * ( - 2 ) lam26n5 ) ( * 1 lam26n6 ) ( * 1 lam26n7 ) ( * ( - 1 ) lam26n8 ) ( * Nl2main_x1 lam26n10 ) ) 0 ) ( = ( + ( * 1 lam26n0 ) ( * 5 lam26n1 ) ( * 3 lam26n2 ) ( * 1 lam26n3 ) ( * 2 lam26n4 ) ( * 1 lam26n5 ) ( * 1 lam26n7 ) ( * 2 lam26n8 ) ( * 1 lam26n9 ) ( * Nl2main_y1 lam26n10 ) ) 0 ) ) ( and ( >= lam27n0 0 ) ( >= lam27n1 0 ) ( >= lam27n2 0 ) ( >= lam27n3 0 ) ( >= lam27n4 0 ) ( >= lam27n5 0 ) ( >= lam27n6 0 ) ( >= lam27n7 0 ) ( >= lam27n8 0 ) ( >= lam27n9 0 ) ( >= lam27n10 0 ) ( >= lam27n11 0 ) ( > ( + ( * 1 lam27n0 ) ( * 1 lam27n1 ) ( * ( - 1 ) lam27n2 ) ( * ( - 1 ) lam27n3 ) ( * ( - 1 ) lam27n4 ) ( * ( - 2 ) lam27n5 ) ( * ( - 50000 ) lam27n6 ) ( * ( - 50000 ) lam27n7 ) ( * ( - 50000 ) lam27n8 ) ( * ( - 50000 ) lam27n9 ) ( * ( - 50000 ) lam27n10 ) ( * Nl2CT1 lam27n11 ) ( - 1 ) ) 0 ) ( = ( + ( * ( - 1 ) lam27n0 ) ( * ( - 4 ) lam27n1 ) ( * 4 lam27n2 ) ( * 2 lam27n3 ) ( * 3 lam27n4 ) ( * 2 lam27n5 ) ( * 4 lam27n6 ) ( * 1 lam27n7 ) ( * 1 lam27n8 ) ( * ( - 1 ) lam27n9 ) ( * Nl2main_x1 lam27n11 ) ) 0 ) ( = ( + ( * 1 lam27n0 ) ( * 5 lam27n1 ) ( * 3 lam27n2 ) ( * 1 lam27n3 ) ( * 2 lam27n4 ) ( * ( - 1 ) lam27n5 ) ( * ( - 1 ) lam27n6 ) ( * 1 lam27n8 ) ( * 2 lam27n9 ) ( * 1 lam27n10 ) ( * Nl2main_y1 lam27n11 ) ) 0 ) ) ( and ( >= lam28n0 0 ) ( >= lam28n1 0 ) ( >= lam28n2 0 ) ( >= lam28n3 0 ) ( >= lam28n4 0 ) ( >= lam28n5 0 ) ( >= lam28n6 0 ) ( >= lam28n7 0 ) ( >= lam28n8 0 ) ( >= lam28n9 0 ) ( >= lam28n10 0 ) ( >= lam28n11 0 ) ( > ( + ( * 1 lam28n1 ) ( * ( - 1 ) lam28n2 ) ( * ( - 1 ) lam28n3 ) ( * ( - 1 ) lam28n4 ) ( * ( - 2 ) lam28n5 ) ( * ( - 50000 ) lam28n6 ) ( * ( - 50000 ) lam28n7 ) ( * ( - 50000 ) lam28n8 ) ( * ( - 50000 ) lam28n9 ) ( * ( - 50000 ) lam28n10 ) ( * Nl2CT1 lam28n11 ) ( - 1 ) ) 0 ) ( = ( + ( * 1 lam28n0 ) ( * ( - 4 ) lam28n1 ) ( * 4 lam28n2 ) ( * 2 lam28n3 ) ( * 3 lam28n4 ) ( * 2 lam28n5 ) ( * 4 lam28n6 ) ( * 1 lam28n7 ) ( * 1 lam28n8 ) ( * ( - 1 ) lam28n9 ) ( * Nl2main_x1 lam28n11 ) ) 0 ) ( = ( + ( * ( - 1 ) lam28n0 ) ( * 5 lam28n1 ) ( * 3 lam28n2 ) ( * 1 lam28n3 ) ( * 2 lam28n4 ) ( * ( - 1 ) lam28n5 ) ( * ( - 1 ) lam28n6 ) ( * 1 lam28n8 ) ( * 2 lam28n9 ) ( * 1 lam28n10 ) ( * Nl2main_y1 lam28n11 ) ) 0 ) ) ( and ( >= lam29n0 0 ) ( >= lam29n1 0 ) ( >= lam29n2 0 ) ( >= lam29n3 0 ) ( >= lam29n4 0 ) ( >= lam29n5 0 ) ( >= lam29n6 0 ) ( >= lam29n7 0 ) ( >= lam29n8 0 ) ( >= lam29n9 0 ) ( >= lam29n10 0 ) ( >= lam29n11 0 ) ( > ( + ( * ( - 1 ) lam29n2 ) ( * ( - 1 ) lam29n3 ) ( * ( - 1 ) lam29n4 ) ( * ( - 2 ) lam29n5 ) ( * ( - 50000 ) lam29n6 ) ( * ( - 50000 ) lam29n7 ) ( * ( - 50000 ) lam29n8 ) ( * ( - 50000 ) lam29n9 ) ( * ( - 50000 ) lam29n10 ) ( * Nl2CT1 lam29n11 ) ( - 1 ) ) 0 ) ( = ( + ( * 4 lam29n0 ) ( * 1 lam29n1 ) ( * 4 lam29n2 ) ( * 2 lam29n3 ) ( * 3 lam29n4 ) ( * 2 lam29n5 ) ( * 4 lam29n6 ) ( * 1 lam29n7 ) ( * 1 lam29n8 ) ( * ( - 1 ) lam29n9 ) ( * Nl2main_x1 lam29n11 ) ) 0 ) ( = ( + ( * ( - 5 ) lam29n0 ) ( * ( - 1 ) lam29n1 ) ( * 3 lam29n2 ) ( * 1 lam29n3 ) ( * 2 lam29n4 ) ( * ( - 1 ) lam29n5 ) ( * ( - 1 ) lam29n6 ) ( * 1 lam29n8 ) ( * 2 lam29n9 ) ( * 1 lam29n10 ) ( * Nl2main_y1 lam29n11 ) ) 0 ) ) ( and ( >= lam30n0 0 ) ( >= lam30n1 0 ) ( >= lam30n2 0 ) ( >= lam30n3 0 ) ( >= lam30n4 0 ) ( >= lam30n5 0 ) ( >= lam30n6 0 ) ( >= lam30n7 0 ) ( >= lam30n8 0 ) ( >= lam30n9 0 ) ( >= lam30n10 0 ) ( >= lam30n11 0 ) ( > ( + ( * ( - 1 ) lam30n2 ) ( * ( - 1 ) lam30n3 ) ( * ( - 1 ) lam30n4 ) ( * ( - 2 ) lam30n5 ) ( * 50001 lam30n6 ) ( * 50001 lam30n7 ) ( * 50001 lam30n8 ) ( * ( - 50000 ) lam30n9 ) ( * ( - 50000 ) lam30n10 ) ( * Nl2CT1 lam30n11 ) ( - 1 ) ) 0 ) ( = ( + ( * 4 lam30n0 ) ( * 1 lam30n1 ) ( * 4 lam30n2 ) ( * 2 lam30n3 ) ( * 3 lam30n4 ) ( * 2 lam30n5 ) ( * 1 lam30n6 ) ( * ( - 1 ) lam30n7 ) ( * 4 lam30n9 ) ( * 1 lam30n10 ) ( * Nl2main_x1 lam30n11 ) ) 0 ) ( = ( + ( * ( - 5 ) lam30n0 ) ( * ( - 1 ) lam30n1 ) ( * 3 lam30n2 ) ( * 1 lam30n3 ) ( * 2 lam30n4 ) ( * ( - 1 ) lam30n5 ) ( * ( - 2 ) lam30n6 ) ( * ( - 1 ) lam30n7 ) ( * ( - 1 ) lam30n8 ) ( * ( - 1 ) lam30n9 ) ( * Nl2main_y1 lam30n11 ) ) 0 ) ) ( and ( >= lam31n0 0 ) ( >= lam31n1 0 ) ( >= lam31n2 0 ) ( >= lam31n3 0 ) ( >= lam31n4 0 ) ( >= lam31n5 0 ) ( >= lam31n6 0 ) ( >= lam31n7 0 ) ( >= lam31n8 0 ) ( >= lam31n9 0 ) ( >= lam31n10 0 ) ( > ( + ( * ( - 1 ) lam31n2 ) ( * ( - 1 ) lam31n3 ) ( * ( - 1 ) lam31n4 ) ( * ( - 2 ) lam31n5 ) ( * 50001 lam31n6 ) ( * ( - 50000 ) lam31n7 ) ( * ( - 50000 ) lam31n8 ) ( * ( - 50000 ) lam31n9 ) ( * Nl2CT1 lam31n10 ) ( - 1 ) ) 0 ) ( = ( + ( * 4 lam31n0 ) ( * 1 lam31n1 ) ( * 4 lam31n2 ) ( * 2 lam31n3 ) ( * 3 lam31n4 ) ( * 2 lam31n5 ) ( * 1 lam31n6 ) ( * 4 lam31n7 ) ( * 1 lam31n8 ) ( * 1 lam31n9 ) ( * Nl2main_x1 lam31n10 ) ) 0 ) ( = ( + ( * ( - 5 ) lam31n0 ) ( * ( - 1 ) lam31n1 ) ( * 3 lam31n2 ) ( * 1 lam31n3 ) ( * 2 lam31n4 ) ( * ( - 1 ) lam31n5 ) ( * ( - 2 ) lam31n6 ) ( * ( - 1 ) lam31n7 ) ( * 1 lam31n9 ) ( * Nl2main_y1 lam31n10 ) ) 0 ) ) ))
(assert ( and ( <= ( + Nl2CT1 ( * Nl2main_x1 FV_main_x_2 ) ( * Nl2main_y1 FV_main_y_2 ) ) 0 ) ( and ( <= ( + 2 ( * ( - 4 ) FV_main_x_2 ) ( * ( - 3 ) FV_main_y_2 ) ) 0 ) ( <= ( + 2 ( * ( - 2 ) FV_main_x_2 ) ( * ( - 1 ) FV_main_y_2 ) ) 0 ) ( <= ( + 2 ( * ( - 3 ) FV_main_x_2 ) ( * ( - 2 ) FV_main_y_2 ) ) 0 ) ( <= ( + 1 ( * ( - 1 ) FV_main_x_2 ) FV_main_y_2 ) 0 ) ( <= ( + 1 ( * ( - 4 ) FV_main_x_2 ) ( * 5 FV_main_y_2 ) ) 0 ) ( <= ( + 3 ( * ( - 2 ) FV_main_x_2 ) FV_main_y_2 ) 0 ) ( <= ( + 50001 FV_main_x_2 ( * ( - 2 ) FV_main_y_2 ) ) 0 ) ( <= ( + 50001 ( * ( - 1 ) FV_main_x_2 ) ) 0 ) ( <= ( + 50001 ( * ( - 1 ) FV_main_x_2 ) ( * ( - 1 ) FV_main_y_2 ) ) 0 ) ( <= ( + 50001 ( * ( - 4 ) FV_main_x_2 ) FV_main_y_2 ) 0 ) ( <= ( + 50001 ( * ( - 1 ) FV_main_y_2 ) ) 0 ) ) ))
(check-sat)
(exit)
